(set-option :print-success false)
(set-logic QF_UF)
(declare-sort x99 0)
(declare-sort x110 0)
(declare-fun x71 (x110 x110) x110)
(declare-fun x136 () x110)
(declare-fun x104 () x110)
(declare-fun x75 () x110)
(declare-fun x2 () x110)
(declare-fun x111 () x110)
(assert (not (and (and (and (= x2 (x71 x75 x75)) (= x136 (x71 x104 x75))) (= (x71 x2 x75) x104)) (= x111 (x71 x104 x136)))))
(assert (not (and (and (= (x71 x2 x111) x136) (and (= (x71 x136 x111) x104) (= (x71 x111 x111) x2))) (= x75 (x71 x136 x104)))))
(assert (not (and (and (and (= (x71 x2 x136) x104) (= (x71 x136 x136) x111)) (= (x71 x111 x136) x2)) (= x75 (x71 x2 x104)))))
(assert (not (and (and (and (= (x71 x75 x75) x111) (= (x71 x2 x75) x136)) (= x2 (x71 x111 x75))) (= x104 (x71 x2 x136)))))
(assert (not (and (= (x71 x136 x111) x104) (and (= x136 (x71 x2 x75)) (and (= x111 (x71 x136 x75)) (= (x71 x75 x75) x2))))))
(assert (not (and (and (and (= (x71 x136 x104) x111) (= (x71 x104 x104) x2)) (= x136 (x71 x2 x104))) (= (x71 x136 x111) x75))))
(assert (not (and (and (= (x71 x75 x136) x2) (and (= (x71 x2 x136) x104) (= (x71 x136 x136) x75))) (= x111 (x71 x2 x104)))))
(assert (not (and (= x2 (x71 x136 x104)) (and (and (= (x71 x136 x75) x104) (= x111 (x71 x75 x75))) (= x136 (x71 x111 x75))))))
(assert (not (and (and (= (x71 x104 x111) x136) (and (= (x71 x136 x111) x75) (= (x71 x111 x111) x104))) (= (x71 x136 x75) x2))))
(assert (not (and (= (x71 x136 x2) x111) (and (= (x71 x104 x75) x136) (and (= x2 (x71 x136 x75)) (= (x71 x75 x75) x104))))))
(assert (not (and (= x136 (x71 x2 x104)) (and (= (x71 x75 x111) x2) (and (= x104 (x71 x2 x111)) (= x75 (x71 x111 x111)))))))
(assert (not (and (= (x71 x104 x136) x75) (and (= x104 (x71 x111 x2)) (and (= x111 (x71 x2 x2)) (= x136 (x71 x104 x2)))))))
(assert (not (and (= (x71 x111 x75) x2) (and (= (x71 x136 x104) x111) (and (= (x71 x104 x104) x136) (= x75 (x71 x111 x104)))))))
(assert (not (and (= x75 (x71 x2 x111)) (and (and (= x111 (x71 x2 x136)) (= (x71 x136 x136) x104)) (= x2 (x71 x104 x136))))))
(assert (not (and (and (and (= x104 (x71 x75 x111)) (= x136 (x71 x111 x111))) (= x75 (x71 x136 x111))) (= (x71 x75 x104) x2))))
(assert (let ((x16 (x71 x111 x2)) (x137 (x71 x104 x2)) (x102 (x71 x136 x111)) (x66 (x71 x111 x104)) (x20 (x71 x75 x111)) (x11 (x71 x136 x2)) (x43 (x71 x111 x75)) (x134 (x71 x2 x75)) (x54 (x71 x75 x2)) (x85 (x71 x104 x104)) (x153 (x71 x2 x136)) (x156 (x71 x2 x104)) (x139 (x71 x111 x111)) (x6 (x71 x136 x75)) (x38 (x71 x104 x136)) (x108 (x71 x104 x75)) (x44 (x71 x75 x104)) (x109 (x71 x2 x111)) (x130 (x71 x136 x104)) (x70 (x71 x136 x136)) (x120 (x71 x75 x75)) (x63 (x71 x2 x2)) (x18 (x71 x104 x111)) (x100 (x71 x111 x136)) (x45 (x71 x75 x136))) (and (and (and (and (not (= x6 x120)) (and (not (= x6 x108)) (and (not (= x43 x120)) (and (not (= x108 x43)) (and (and (not (= x120 x134)) (and (and (not (= x6 x134)) (not (= x43 x134))) (not (= x134 x108)))) (not (= x43 x6))))))) (not (= x108 x120))) (and (and (and (and (not (= x70 x45)) (and (not (= x70 x38)) (and (not (= x45 x100)) (and (not (= x100 x38)) (and (and (not (= x45 x153)) (and (and (not (= x70 x153)) (not (= x153 x100))) (not (= x38 x153)))) (not (= x70 x100))))))) (not (= x45 x38))) (and (and (and (and (and (and (and (not (= x11 x16)) (and (and (not (= x63 x137)) (and (not (= x63 x16)) (not (= x11 x63)))) (not (= x54 x63)))) (not (= x16 x137))) (not (= x16 x54))) (not (= x11 x137))) (not (= x54 x11))) (not (= x54 x137))) (and (not (= x18 x20)) (and (not (= x20 x102)) (and (not (= x18 x102)) (and (and (and (and (not (= x20 x109)) (and (and (not (= x139 x109)) (not (= x102 x109))) (not (= x18 x109)))) (not (= x102 x139))) (not (= x139 x18))) (not (= x139 x20)))))))) (and (and (not (= x130 x44)) (and (not (= x130 x85)) (and (and (and (and (and (and (not (= x156 x66)) (not (= x156 x130))) (not (= x156 x85))) (not (= x44 x156))) (not (= x66 x130))) (not (= x85 x66))) (not (= x66 x44))))) (not (= x85 x44))))) (and (and (and (and (and (not (= x134 x156)) (and (and (and (and (not (= x109 x156)) (and (and (not (= x134 x63)) (and (and (not (= x63 x109)) (not (= x153 x63))) (not (= x156 x63)))) (not (= x109 x153)))) (not (= x109 x134))) (not (= x153 x156))) (not (= x134 x153)))) (and (not (= x43 x66)) (and (and (and (and (not (= x66 x139)) (and (not (= x139 x100)) (and (not (= x16 x43)) (and (not (= x66 x16)) (and (not (= x139 x16)) (not (= x16 x100))))))) (not (= x43 x139))) (not (= x100 x66))) (not (= x100 x43))))) (and (not (= x130 x6)) (and (not (= x6 x70)) (and (and (and (and (and (not (= x11 x6)) (and (not (= x130 x11)) (and (not (= x11 x102)) (not (= x70 x11))))) (not (= x102 x70))) (not (= x130 x102))) (not (= x6 x102))) (not (= x70 x130)))))) (and (not (= x85 x108)) (and (and (and (and (and (and (and (and (not (= x137 x18)) (not (= x137 x38))) (not (= x137 x85))) (not (= x108 x137))) (not (= x18 x38))) (not (= x85 x18))) (not (= x108 x18))) (not (= x85 x38))) (not (= x38 x108))))) (and (and (and (and (not (= x120 x20)) (and (not (= x20 x44)) (and (and (not (= x120 x54)) (and (not (= x54 x44)) (and (not (= x54 x45)) (not (= x54 x20))))) (not (= x45 x20))))) (not (= x45 x44))) (not (= x45 x120))) (not (= x120 x44)))))))
(assert (not (and (= (x71 x75 x111) x104) (and (= (x71 x136 x2) x75) (and (= x111 (x71 x75 x2)) (= x136 (x71 x2 x2)))))))
(assert (not (and (= x104 (x71 x111 x136)) (and (= x111 (x71 x2 x75)) (and (= x2 (x71 x75 x75)) (= (x71 x111 x75) x136))))))
(assert (not (and (and (and (= (x71 x2 x2) x75) (= x111 (x71 x104 x2))) (= (x71 x75 x2) x104)) (= x136 (x71 x104 x111)))))
(assert (not (and (= x75 (x71 x111 x104)) (and (= (x71 x136 x2) x111) (and (= x104 (x71 x111 x2)) (= (x71 x2 x2) x136))))))
(assert (not (and (and (= (x71 x75 x2) x104) (and (= (x71 x104 x2) x136) (= x75 (x71 x2 x2)))) (= x111 (x71 x104 x136)))))
(assert (not (and (and (= x111 (x71 x104 x75)) (and (= (x71 x75 x75) x104) (= (x71 x111 x75) x136))) (= (x71 x111 x136) x2))))
(assert (not (and (and (= x104 (x71 x111 x75)) (and (= (x71 x75 x75) x111) (= x2 (x71 x104 x75)))) (= (x71 x104 x2) x136))))
(assert (not (and (and (= (x71 x75 x104) x111) (and (= (x71 x111 x104) x2) (= (x71 x104 x104) x75))) (= x136 (x71 x111 x2)))))
(assert (not (and (= x111 (x71 x2 x136)) (and (= x2 (x71 x75 x104)) (and (= (x71 x104 x104) x75) (= (x71 x2 x104) x136))))))
(assert (not (and (= (x71 x111 x104) x136) (and (and (= x75 (x71 x2 x2)) (= (x71 x111 x2) x104)) (= x111 (x71 x75 x2))))))
(assert (not (and (= (x71 x136 x2) x111) (and (and (= (x71 x136 x104) x2) (= (x71 x104 x104) x75)) (= x136 (x71 x75 x104))))))
(assert (and (and (not (= (x71 (x71 x104 x104) x104) x104)) (and (and (not (= x111 (x71 (x71 x111 x111) x111))) (not (= x2 (x71 (x71 x2 x2) x2)))) (not (= x136 (x71 (x71 x136 x136) x136))))) (not (= x75 (x71 (x71 x75 x75) x75)))))
(assert (not (and (and (and (= x2 (x71 x104 x104)) (= (x71 x75 x104) x111)) (= (x71 x2 x104) x75)) (= x136 (x71 x75 x111)))))
(assert (not (and (= (x71 x75 x136) x2) (and (= (x71 x104 x111) x75) (and (= x136 (x71 x75 x111)) (= x104 (x71 x111 x111)))))))
(assert (not (and (and (= (x71 x2 x111) x75) (and (= x136 (x71 x75 x111)) (= x2 (x71 x111 x111)))) (= x104 (x71 x75 x136)))))
(assert (not (and (and (= x2 (x71 x136 x75)) (and (= x136 (x71 x75 x75)) (= x104 (x71 x2 x75)))) (= (x71 x2 x104) x111))))
(assert (not (and (and (and (= x136 (x71 x104 x111)) (= (x71 x111 x111) x75)) (= (x71 x75 x111) x104)) (= x2 (x71 x104 x136)))))
(assert (not (and (= x136 (x71 x75 x2)) (and (= x75 (x71 x104 x111)) (and (= (x71 x75 x111) x2) (= (x71 x111 x111) x104))))))
(assert (not (and (= x111 (x71 x2 x136)) (and (and (= x136 (x71 x2 x75)) (= x104 (x71 x75 x75))) (= (x71 x104 x75) x2)))))
(assert (not (and (and (= x136 (x71 x104 x111)) (and (= x104 (x71 x111 x111)) (= x2 (x71 x136 x111)))) (= (x71 x136 x2) x75))))
(assert (not (and (and (= (x71 x75 x136) x104) (and (= (x71 x104 x136) x111) (= x75 (x71 x136 x136)))) (= (x71 x104 x111) x2))))
(assert (not (and (= x111 (x71 x75 x136)) (and (and (= (x71 x104 x104) x2) (= x136 (x71 x75 x104))) (= x75 (x71 x2 x104))))))
(assert (not (and (= (x71 x104 x111) x2) (and (= x104 (x71 x136 x75)) (and (= x136 (x71 x75 x75)) (= (x71 x104 x75) x111))))))
(assert (not (and (= (x71 x111 x2) x104) (and (= (x71 x136 x75) x111) (and (= x136 (x71 x75 x75)) (= (x71 x111 x75) x2))))))
(assert (not (and (= (x71 x75 x2) x111) (and (= x75 (x71 x104 x136)) (and (= x104 (x71 x136 x136)) (= (x71 x75 x136) x2))))))
(assert (not (and (= (x71 x136 x2) x104) (and (= (x71 x75 x111) x136) (and (= (x71 x111 x111) x75) (= (x71 x136 x111) x2))))))
(assert (not (and (and (and (= x104 (x71 x111 x111)) (= x75 (x71 x2 x111))) (= x2 (x71 x104 x111))) (= (x71 x2 x75) x136))))
(assert (not (and (and (and (= x104 (x71 x136 x136)) (= (x71 x2 x136) x75)) (= x2 (x71 x104 x136))) (= (x71 x2 x75) x111))))
(assert (not (and (and (= (x71 x2 x111) x104) (and (= x136 (x71 x104 x111)) (= x2 (x71 x111 x111)))) (= (x71 x104 x136) x75))))
(assert (not (and (= x104 (x71 x75 x2)) (and (and (= (x71 x75 x111) x2) (= x136 (x71 x111 x111))) (= (x71 x136 x111) x75)))))
(assert (not (and (= x2 (x71 x111 x75)) (and (= x111 (x71 x104 x136)) (and (= x104 (x71 x136 x136)) (= x75 (x71 x111 x136)))))))
(assert (not (and (= (x71 x111 x136) x75) (and (= x111 (x71 x104 x2)) (and (= (x71 x111 x2) x136) (= x104 (x71 x2 x2)))))))
(assert (not (and (and (= (x71 x75 x136) x104) (and (= x75 (x71 x136 x136)) (= x2 (x71 x104 x136)))) (= (x71 x104 x2) x111))))
(assert (not (and (and (= (x71 x75 x111) x104) (and (= x75 (x71 x111 x111)) (= x2 (x71 x104 x111)))) (= (x71 x104 x2) x136))))
(assert (let ((x137 (x71 x104 x104)) (x54 (x71 x75 x75)) (x63 (x71 x2 x2)) (x16 (x71 x111 x111)) (x11 (x71 x136 x136))) (or (= (x71 x54 x54) x75) (or (or (or (= (x71 x16 x16) x111) (= x2 (x71 x63 x63))) (= (x71 x11 x11) x136)) (= (x71 x137 x137) x104)))))
(assert (let ((x100 (x71 x136 x111)) (x130 (x71 x104 x136)) (x102 (x71 x111 x136)) (x66 (x71 x104 x111)) (x44 (x71 x104 x75)) (x54 (x71 x2 x75)) (x20 (x71 x111 x75)) (x70 (x71 x136 x136)) (x134 (x71 x75 x2)) (x153 (x71 x136 x2)) (x137 (x71 x2 x104)) (x38 (x71 x136 x104)) (x85 (x71 x104 x104)) (x43 (x71 x75 x111)) (x156 (x71 x104 x2)) (x108 (x71 x75 x104)) (x45 (x71 x136 x75)) (x63 (x71 x2 x2)) (x109 (x71 x111 x2)) (x18 (x71 x111 x104)) (x6 (x71 x75 x136)) (x11 (x71 x2 x136)) (x139 (x71 x111 x111)) (x16 (x71 x2 x111)) (x120 (x71 x75 x75))) (and (and (and (and (and (and (and (and (or (or (or (= x63 x136) (or (= x63 x111) (= x63 x2))) (= x104 x63)) (= x63 x75)) (or (= x16 x75) (or (= x104 x16) (or (= x16 x136) (or (= x16 x2) (= x111 x16)))))) (or (or (or (= x11 x136) (or (= x11 x111) (= x2 x11))) (= x104 x11)) (= x75 x11))) (or (or (or (= x136 x137) (or (= x137 x2) (= x137 x111))) (= x137 x104)) (= x137 x75))) (or (= x54 x75) (or (or (= x136 x54) (or (= x111 x54) (= x2 x54))) (= x54 x104)))) (and (or (= x20 x75) (or (= x104 x20) (or (or (= x20 x111) (= x20 x2)) (= x136 x20)))) (and (and (or (or (= x104 x102) (or (= x136 x102) (or (= x102 x111) (= x2 x102)))) (= x75 x102)) (and (or (= x75 x139) (or (= x104 x139) (or (= x136 x139) (or (= x139 x2) (= x139 x111))))) (or (= x109 x75) (or (= x109 x104) (or (= x109 x136) (or (= x109 x2) (= x111 x109))))))) (or (or (= x104 x18) (or (= x136 x18) (or (= x111 x18) (= x2 x18)))) (= x18 x75))))) (and (or (or (or (= x136 x45) (or (= x2 x45) (= x45 x111))) (= x45 x104)) (= x75 x45)) (and (or (= x38 x75) (or (= x104 x38) (or (= x38 x136) (or (= x111 x38) (= x2 x38))))) (and (or (or (= x104 x70) (or (or (= x70 x111) (= x2 x70)) (= x70 x136))) (= x70 x75)) (and (or (or (or (or (= x100 x111) (= x100 x2)) (= x136 x100)) (= x100 x104)) (= x75 x100)) (or (= x75 x153) (or (or (= x153 x136) (or (= x111 x153) (= x153 x2))) (= x104 x153)))))))) (and (and (and (and (or (or (= x104 x66) (or (= x136 x66) (or (= x66 x2) (= x111 x66)))) (= x66 x75)) (or (or (= x104 x156) (or (= x156 x136) (or (= x156 x2) (= x156 x111)))) (= x75 x156))) (or (= x130 x75) (or (= x130 x104) (or (or (= x130 x111) (= x2 x130)) (= x136 x130))))) (or (= x85 x75) (or (or (or (= x85 x111) (= x85 x2)) (= x136 x85)) (= x85 x104)))) (or (= x44 x75) (or (or (= x136 x44) (or (= x44 x2) (= x111 x44))) (= x104 x44))))) (and (and (and (or (or (or (= x136 x6) (or (= x111 x6) (= x2 x6))) (= x104 x6)) (= x75 x6)) (and (or (or (= x104 x134) (or (= x134 x136) (or (= x134 x2) (= x134 x111)))) (= x75 x134)) (or (or (= x104 x43) (or (or (= x43 x2) (= x111 x43)) (= x136 x43))) (= x75 x43)))) (or (= x108 x75) (or (= x104 x108) (or (= x108 x136) (or (= x111 x108) (= x2 x108)))))) (or (= x120 x75) (or (or (or (= x111 x120) (= x120 x2)) (= x120 x136)) (= x104 x120)))))))
(assert (not (and (and (and (= x104 (x71 x2 x2)) (= (x71 x111 x2) x75)) (= x111 (x71 x104 x2))) (= (x71 x111 x75) x136))))
(assert (let ((x11 (x71 x2 x136)) (x70 (x71 x136 x136)) (x130 (x71 x104 x136)) (x100 (x71 x136 x111)) (x134 (x71 x75 x2)) (x102 (x71 x111 x136)) (x6 (x71 x75 x136)) (x109 (x71 x111 x2)) (x108 (x71 x75 x104)) (x44 (x71 x104 x75)) (x45 (x71 x136 x75)) (x137 (x71 x2 x104)) (x18 (x71 x111 x104)) (x139 (x71 x111 x111)) (x38 (x71 x136 x104)) (x43 (x71 x75 x111)) (x20 (x71 x111 x75)) (x16 (x71 x2 x111)) (x85 (x71 x104 x104)) (x63 (x71 x2 x2)) (x66 (x71 x104 x111)) (x54 (x71 x2 x75)) (x156 (x71 x104 x2)) (x120 (x71 x75 x75)) (x153 (x71 x136 x2))) (or (and (not (= x75 (x71 x120 x120))) (and (not (= x104 (x71 x108 x108))) (and (and (not (= x2 (x71 x134 x134))) (not (= (x71 x43 x43) x111))) (not (= (x71 x6 x6) x136))))) (or (or (or (and (and (not (= x104 (x71 x18 x18))) (and (not (= (x71 x102 x102) x136)) (and (not (= x2 (x71 x109 x109))) (not (= (x71 x139 x139) x111))))) (not (= (x71 x20 x20) x75))) (and (and (not (= (x71 x137 x137) x104)) (and (not (= x136 (x71 x11 x11))) (and (not (= x111 (x71 x16 x16))) (not (= x2 (x71 x63 x63)))))) (not (= x75 (x71 x54 x54))))) (and (and (not (= x104 (x71 x38 x38))) (and (and (not (= x2 (x71 x153 x153))) (not (= (x71 x100 x100) x111))) (not (= (x71 x70 x70) x136)))) (not (= x75 (x71 x45 x45))))) (and (and (and (not (= x136 (x71 x130 x130))) (and (not (= (x71 x156 x156) x2)) (not (= x111 (x71 x66 x66))))) (not (= x104 (x71 x85 x85)))) (not (= x75 (x71 x44 x44))))))))
(assert (not (and (and (and (= x75 (x71 x111 x136)) (= (x71 x136 x136) x2)) (= x111 (x71 x2 x136))) (= x104 (x71 x111 x75)))))
(assert (not (and (and (and (= (x71 x104 x104) x2) (= x136 (x71 x111 x104))) (= x111 (x71 x2 x104))) (= x75 (x71 x111 x136)))))
(assert (not (and (and (and (= x136 (x71 x75 x104)) (= x111 (x71 x104 x104))) (= (x71 x111 x104) x75)) (= (x71 x75 x136) x2))))
(assert (not (and (= (x71 x104 x75) x2) (and (= x104 (x71 x136 x111)) (and (= x136 (x71 x111 x111)) (= x75 (x71 x104 x111)))))))
(assert (not (and (= (x71 x136 x75) x104) (and (= (x71 x2 x111) x136) (and (= x75 (x71 x136 x111)) (= (x71 x111 x111) x2))))))
(assert (not (and (and (= x136 (x71 x104 x2)) (and (= (x71 x136 x2) x75) (= x104 (x71 x2 x2)))) (= x111 (x71 x136 x75)))))
(assert (not (and (= x2 (x71 x104 x75)) (and (= x104 (x71 x111 x136)) (and (= (x71 x104 x136) x75) (= (x71 x136 x136) x111))))))
(assert (not (and (= x75 (x71 x136 x2)) (and (and (= (x71 x104 x104) x111) (= (x71 x136 x104) x2)) (= (x71 x111 x104) x136)))))
(assert (not (and (= x75 (x71 x136 x111)) (and (= x136 (x71 x104 x2)) (and (= (x71 x136 x2) x111) (= x104 (x71 x2 x2)))))))
(assert (not (and (and (= x136 (x71 x111 x2)) (and (= (x71 x2 x2) x111) (= x104 (x71 x136 x2)))) (= x75 (x71 x136 x104)))))
(assert (not (and (and (= x111 (x71 x136 x75)) (and (= (x71 x75 x75) x136) (= (x71 x111 x75) x104))) (= x2 (x71 x111 x104)))))
(assert (not (and (= x136 (x71 x111 x75)) (and (and (= (x71 x104 x104) x2) (= (x71 x111 x104) x75)) (= x111 (x71 x2 x104))))))
(assert (not (and (= (x71 x75 x104) x136) (and (= (x71 x111 x2) x75) (and (= x104 (x71 x75 x2)) (= (x71 x2 x2) x111))))))
(assert (or (or (and (not (= (x71 x104 (x71 x104 x75)) x75)) (and (and (not (= x136 (x71 x104 (x71 x104 x136)))) (and (not (= x2 (x71 x104 (x71 x104 x2)))) (not (= x111 (x71 x104 (x71 x104 x111)))))) (not (= (x71 x104 (x71 x104 x104)) x104)))) (or (or (and (not (= (x71 x111 (x71 x111 x75)) x75)) (and (not (= x104 (x71 x111 (x71 x111 x104)))) (and (not (= x136 (x71 x111 (x71 x111 x136)))) (and (not (= x2 (x71 x111 (x71 x111 x2)))) (not (= x111 (x71 x111 (x71 x111 x111)))))))) (and (not (= (x71 x2 (x71 x2 x75)) x75)) (and (not (= x104 (x71 x2 (x71 x2 x104)))) (and (and (not (= x2 (x71 x2 (x71 x2 x2)))) (not (= (x71 x2 (x71 x2 x111)) x111))) (not (= (x71 x2 (x71 x2 x136)) x136)))))) (and (not (= x75 (x71 x136 (x71 x136 x75)))) (and (not (= (x71 x136 (x71 x136 x104)) x104)) (and (not (= x136 (x71 x136 (x71 x136 x136)))) (and (not (= x111 (x71 x136 (x71 x136 x111)))) (not (= (x71 x136 (x71 x136 x2)) x2)))))))) (and (not (= x75 (x71 x75 (x71 x75 x75)))) (and (and (and (not (= (x71 x75 (x71 x75 x111)) x111)) (not (= (x71 x75 (x71 x75 x2)) x2))) (not (= (x71 x75 (x71 x75 x136)) x136))) (not (= (x71 x75 (x71 x75 x104)) x104))))))
(assert (not (and (and (and (= (x71 x136 x75) x2) (= x111 (x71 x75 x75))) (= (x71 x111 x75) x136)) (= (x71 x136 x2) x104))))
(assert (not (and (= x111 (x71 x75 x136)) (and (and (= (x71 x75 x2) x136) (= x104 (x71 x2 x2))) (= x75 (x71 x104 x2))))))
(assert (not (and (= x2 (x71 x75 x104)) (and (= x75 (x71 x111 x136)) (and (= (x71 x136 x136) x111) (= x104 (x71 x75 x136)))))))
(assert (not (and (= (x71 x2 x75) x111) (and (= (x71 x136 x104) x2) (and (= (x71 x104 x104) x136) (= (x71 x2 x104) x75))))))
(assert (not (and (and (and (= (x71 x104 x104) x111) (= x2 (x71 x75 x104))) (= x75 (x71 x111 x104))) (= (x71 x75 x2) x136))))
(assert (not (and (and (and (= (x71 x104 x104) x111) (= x75 (x71 x136 x104))) (= (x71 x111 x104) x136)) (= x2 (x71 x136 x75)))))
(assert (not (and (and (= x136 (x71 x2 x75)) (and (= (x71 x136 x75) x104) (= (x71 x75 x75) x2))) (= x111 (x71 x136 x104)))))
(assert (not (and (= x111 (x71 x104 x2)) (and (= x104 (x71 x136 x75)) (and (= (x71 x104 x75) x2) (= x136 (x71 x75 x75)))))))
(assert (not (and (and (= x2 (x71 x136 x104)) (and (= x136 (x71 x104 x104)) (= x111 (x71 x2 x104)))) (= x75 (x71 x2 x111)))))
(assert (let ((x7 (x71 x111 x111)) (x97 (x71 x104 x111)) (x123 (x71 x104 x136)) (x10 (x71 x2 x111)) (x133 (x71 x2 x2)) (x154 (x71 x75 x104)) (x15 (x71 x136 x2)) (x19 (x71 x111 x104)) (x12 (x71 x136 x104)) (x114 (x71 x75 x2)) (x4 (x71 x136 x75)) (x146 (x71 x111 x75)) (x152 (x71 x75 x136)) (x9 (x71 x136 x136)) (x107 (x71 x75 x75)) (x17 (x71 x104 x75)) (x83 (x71 x2 x136)) (x41 (x71 x111 x136)) (x96 (x71 x104 x104)) (x46 (x71 x136 x111)) (x8 (x71 x2 x104)) (x78 (x71 x111 x2)) (x49 (x71 x75 x111)) (x14 (x71 x2 x75)) (x56 (x71 x104 x2))) (let ((x54 (not (= x2 x15))) (x70 (not (= x2 x19))) (x84 (not (= x114 x75))) (x95 (not (= x111 x41))) (x64 (not (= x78 x111))) (x31 (not (= x136 x152))) (x16 (not (= x78 x2))) (x6 (not (= x2 x154))) (x38 (not (= x123 x2))) (x29 (not (= x8 x104))) (x132 (not (= x7 x111))) (x103 (not (= x136 x107))) (x21 (not (= x152 x104))) (x34 (not (= x111 x14))) (x134 (not (= x152 x2))) (x144 (not (= x12 x111))) (x74 (not (= x111 x56))) (x43 (not (= x4 x2))) (x23 (not (= x41 x136))) (x124 (not (= x111 x133))) (x143 (not (= x136 x14))) (x105 (not (= x136 x123))) (x42 (not (= x83 x104))) (x73 (not (= x7 x104))) (x1 (not (= x154 x75))) (x100 (not (= x97 x2))) (x115 (not (= x111 x96))) (x101 (not (= x15 x136))) (x127 (not (= x9 x136))) (x135 (not (= x123 x104))) (x88 (not (= x133 x75))) (x102 (not (= x41 x2))) (x63 (not (= x133 x2))) (x66 (not (= x2 x114))) (x57 (not (= x97 x136))) (x30 (not (= x136 x146))) (x92 (not (= x136 x4))) (x81 (not (= x111 x123))) (x117 (not (= x133 x136))) (x80 (not (= x7 x75))) (x89 (not (= x78 x136))) (x13 (not (= x133 x104))) (x153 (not (= x2 x8))) (x149 (not (= x8 x136))) (x155 (not (= x104 x49))) (x138 (not (= x56 x75))) (x18 (not (= x9 x2))) (x48 (not (= x104 x146))) (x3 (not (= x49 x111))) (x113 (not (= x107 x111))) (x151 (not (= x136 x10))) (x27 (not (= x17 x104))) (x36 (not (= x14 x75))) (x68 (not (= x41 x104))) (x120 (not (= x2 x107))) (x51 (not (= x17 x136))) (x122 (not (= x83 x75))) (x33 (not (= x136 x96))) (x77 (not (= x97 x111))) (x47 (not (= x136 x46))) (x118 (not (= x111 x114))) (x106 (not (= x111 x19))) (x35 (not (= x104 x46))) (x131 (not (= x75 x78))) (x119 (not (= x136 x114))) (x28 (not (= x46 x111))) (x85 (not (= x2 x49))) (x52 (not (= x8 x75))) (x156 (not (= x2 x96))) (x22 (not (= x136 x7))) (x55 (not (= x75 x146))) (x5 (not (= x104 x9))) (x65 (not (= x75 x41))) (x98 (not (= x46 x75))) (x150 (not (= x97 x75))) (x128 (not (= x75 x107))) (x26 (not (= x75 x10))) (x116 (not (= x104 x107))) (x109 (not (= x83 x2))) (x158 (not (= x104 x154))) (x72 (not (= x56 x104))) (x141 (not (= x104 x12))) (x90 (not (= x49 x75))) (x94 (not (= x154 x136))) (x87 (not (= x75 x15))) (x40 (not (= x114 x104))) (x69 (not (= x111 x4))) (x79 (not (= x19 x104))) (x25 (not (= x4 x75))) (x82 (not (= x111 x9))) (x157 (not (= x104 x10))) (x24 (not (= x111 x146))) (x130 (not (= x2 x14))) (x37 (not (= x83 x136))) (x61 (not (= x136 x49))) (x62 (not (= x83 x111))) (x125 (not (= x8 x111))) (x140 (not (= x96 x104))) (x145 (not (= x75 x152))) (x45 (not (= x12 x2))) (x129 (not (= x154 x111))) (x32 (not (= x136 x12))) (x93 (not (= x15 x111))) (x53 (not (= x136 x56))) (x148 (not (= x123 x75))) (x58 (not (= x14 x104))) (x20 (not (= x2 x56))) (x108 (not (= x2 x17))) (x86 (not (= x104 x97))) (x147 (not (= x75 x9))) (x59 (not (= x111 x152))) (x91 (not (= x19 x75))) (x44 (not (= x2 x146))) (x50 (not (= x111 x10))) (x126 (not (= x19 x136))) (x11 (not (= x2 x10))) (x67 (not (= x4 x104))) (x39 (not (= x111 x17))) (x139 (not (= x2 x46))) (x137 (not (= x2 x7))) (x142 (not (= x75 x96))) (x76 (not (= x17 x75))) (x60 (not (= x104 x15))) (x121 (not (= x12 x75))) (x112 (not (= x104 x78)))) (or (and (and (and (or x1 x76) (and (or x145 x25) (and (or x84 x36) (or x55 x90)))) (or x128 x128)) (and (and (and (and (or x121 x148) (and (and (or x87 x122) (or x98 x65)) (or x147 x147))) (or x145 x25)) (and (and (or x84 x36) (and (and (and (or x88 x88) (or x26 x131)) (or x87 x122)) (or x138 x52))) (and (or x55 x90) (and (or x91 x150) (and (and (or x131 x26) (or x80 x80)) (or x65 x98)))))) (and (or x1 x76) (and (or x142 x142) (and (and (or x91 x150) (or x52 x138)) (or x148 x121)))))) (or (or (or (and (and (and (or x108 x6) (and (and (or x38 x45) (and (or x100 x70) (or x153 x20))) (or x156 x156))) (and (and (and (or x130 x66) (and (and (and (or x63 x63) (or x16 x11)) (or x54 x109)) (or x20 x153))) (and (and (and (or x139 x102) (and (or x137 x137) (or x11 x16))) (or x70 x100)) (or x85 x44))) (and (and (or x38 x45) (and (and (or x139 x102) (or x54 x109)) (or x18 x18))) (or x43 x134)))) (and (or x120 x120) (and (and (or x43 x134) (and (or x66 x130) (or x85 x44))) (or x108 x6)))) (and (and (and (and (and (and (or x74 x125) (and (and (or x124 x124) (or x64 x50)) (or x62 x93))) (or x34 x118)) (and (and (and (and (or x132 x132) (or x50 x64)) (or x28 x95)) (or x106 x77)) (or x3 x24))) (and (or x59 x69) (and (and (or x82 x82) (and (or x93 x62) (or x28 x95))) (or x81 x144)))) (and (or x39 x129) (and (and (or x81 x144) (and (or x106 x77) (or x74 x125))) (or x115 x115)))) (and (or x113 x113) (and (and (or x59 x69) (and (or x3 x24) (or x118 x34))) (or x39 x129))))) (and (and (and (or x94 x51) (and (or x92 x31) (and (or x143 x119) (or x61 x30)))) (or x103 x103)) (and (and (and (or x92 x31) (and (and (and (or x23 x47) (or x101 x37)) (or x127 x127)) (or x32 x105))) (and (and (or x119 x143) (and (and (or x37 x101) (and (or x89 x151) (or x117 x117))) (or x149 x53))) (and (or x30 x61) (and (or x126 x57) (and (and (or x22 x22) (or x89 x151)) (or x23 x47)))))) (and (or x94 x51) (and (and (and (or x149 x53) (or x126 x57)) (or x105 x32)) (or x33 x33)))))) (and (and (and (or x158 x27) (and (or x140 x140) (and (or x141 x135) (and (or x79 x86) (or x29 x72))))) (and (and (and (and (or x86 x79) (and (and (or x112 x157) (or x73 x73)) (or x68 x35))) (or x48 x155)) (and (and (or x72 x29) (and (and (or x157 x112) (or x13 x13)) (or x60 x42))) (or x40 x58))) (and (or x21 x67) (and (or x135 x141) (and (or x5 x5) (and (or x42 x60) (or x35 x68))))))) (and (and (and (or x67 x21) (and (or x48 x155) (or x58 x40))) (or x27 x158)) (or x116 x116))))))))
(assert (not (and (= x136 (x71 x104 x75)) (and (= x104 (x71 x2 x111)) (and (= (x71 x111 x111) x2) (= x75 (x71 x104 x111)))))))
(assert (not (and (and (and (= (x71 x104 x75) x136) (= x111 (x71 x75 x75))) (= (x71 x111 x75) x104)) (= x2 (x71 x104 x136)))))
(assert (not (and (and (= (x71 x75 x104) x2) (and (= (x71 x104 x104) x75) (= x111 (x71 x2 x104)))) (= x136 (x71 x2 x111)))))
(assert (not (and (and (= (x71 x104 x75) x111) (and (= x2 (x71 x111 x75)) (= (x71 x75 x75) x104))) (= x136 (x71 x111 x2)))))
(assert (not (and (and (and (= x75 (x71 x104 x136)) (= x2 (x71 x136 x136))) (= x104 (x71 x2 x136))) (= x111 (x71 x104 x75)))))
(assert (not (and (= (x71 x2 x136) x75) (and (= (x71 x104 x111) x2) (and (= (x71 x111 x111) x104) (= x136 (x71 x2 x111)))))))
(assert (not (and (= (x71 x136 x111) x104) (and (and (= (x71 x2 x2) x75) (= (x71 x136 x2) x111)) (= (x71 x75 x2) x136)))))
(assert (not (and (and (and (= (x71 x2 x75) x111) (= x104 (x71 x75 x75))) (= (x71 x104 x75) x2)) (= x136 (x71 x2 x111)))))
(assert (let ((x43 (x71 x111 x75)) (x124 (x71 x75 x111)) (x23 (x71 x75 x104)) (x58 (x71 x75 x75)) (x54 (x71 x2 x104)) (x109 (x71 x2 x75)) (x146 (x71 x136 x136)) (x18 (x71 x136 x2)) (x11 (x71 x2 x111)) (x44 (x71 x111 x136)) (x16 (x71 x2 x2)) (x134 (x71 x111 x104)) (x137 (x71 x2 x136)) (x20 (x71 x104 x2)) (x89 (x71 x104 x104)) (x151 (x71 x104 x75)) (x9 (x71 x104 x136)) (x82 (x71 x75 x136)) (x93 (x71 x136 x75)) (x102 (x71 x111 x2)) (x153 (x71 x75 x2)) (x133 (x71 x104 x111)) (x85 (x71 x111 x111)) (x49 (x71 x136 x104)) (x120 (x71 x136 x111))) (let ((x56 (= x104 x85)) (x157 (= x75 x49)) (x144 (= x104 x146)) (x114 (= x75 x11)) (x156 (= x11 x2)) (x84 (= x153 x75)) (x80 (= x43 x136)) (x41 (= x2 x44)) (x12 (= x18 x136)) (x3 (= x133 x2)) (x91 (= x43 x104)) (x158 (= x111 x58)) (x86 (= x2 x151)) (x87 (= x93 x136)) (x107 (= x20 x111)) (x81 (= x104 x44)) (x31 (= x104 x49)) (x138 (= x104 x82)) (x73 (= x75 x89)) (x122 (= x136 x151)) (x47 (= x111 x89)) (x95 (= x111 x146)) (x112 (= x75 x134)) (x148 (= x104 x93)) (x28 (= x44 x111)) (x37 (= x49 x111)) (x40 (= x111 x23)) (x48 (= x111 x43)) (x126 (= x134 x136)) (x108 (= x85 x111)) (x59 (= x54 x2)) (x29 (= x93 x2)) (x83 (= x136 x85)) (x30 (= x134 x104)) (x119 (= x133 x104)) (x150 (= x109 x104)) (x115 (= x120 x75)) (x24 (= x2 x9)) (x132 (= x137 x2)) (x140 (= x111 x82)) (x129 (= x49 x2)) (x67 (= x151 x111)) (x63 (= x2 x16)) (x141 (= x124 x111)) (x76 (= x151 x75)) (x155 (= x109 x111)) (x79 (= x2 x58)) (x50 (= x2 x18)) (x77 (= x104 x120)) (x36 (= x124 x75)) (x154 (= x44 x75)) (x21 (= x111 x93)) (x4 (= x136 x137)) (x118 (= x146 x75)) (x149 (= x136 x9)) (x32 (= x89 x136)) (x92 (= x104 x89)) (x45 (= x102 x2)) (x61 (= x104 x54)) (x105 (= x49 x136)) (x66 (= x85 x2)) (x35 (= x82 x2)) (x152 (= x44 x136)) (x135 (= x153 x111)) (x7 (= x120 x2)) (x78 (= x11 x136)) (x39 (= x2 x89)) (x53 (= x133 x136)) (x100 (= x16 x136)) (x25 (= x43 x75)) (x17 (= x137 x75)) (x142 (= x104 x58)) (x70 (= x104 x16)) (x57 (= x54 x136)) (x60 (= x2 x153)) (x33 (= x20 x104)) (x116 (= x136 x124)) (x68 (= x23 x2)) (x6 (= x111 x11)) (x69 (= x2 x134)) (x113 (= x133 x111)) (x143 (= x104 x9)) (x10 (= x136 x102)) (x127 (= x136 x20)) (x147 (= x124 x104)) (x103 (= x9 x75)) (x38 (= x75 x16)) (x42 (= x2 x124)) (x94 (= x75 x20)) (x131 (= x23 x136)) (x1 (= x75 x93)) (x65 (= x104 x153)) (x97 (= x111 x120)) (x26 (= x136 x109)) (x19 (= x18 x111)) (x46 (= x146 x2)) (x145 (= x109 x75)) (x62 (= x137 x111)) (x125 (= x18 x104)) (x139 (= x111 x16)) (x72 (= x43 x2)) (x106 (= x137 x104)) (x14 (= x75 x102)) (x5 (= x2 x109)) (x74 (= x146 x136)) (x51 (= x75 x133)) (x117 (= x111 x9)) (x22 (= x54 x111)) (x52 (= x23 x104)) (x128 (= x75 x58)) (x55 (= x75 x23)) (x98 (= x58 x136)) (x15 (= x104 x102)) (x27 (= x136 x153)) (x88 (= x136 x82)) (x121 (= x104 x151)) (x130 (= x111 x102)) (x123 (= x120 x136)) (x64 (= x85 x75)) (x90 (= x75 x82)) (x96 (= x18 x75)) (x34 (= x2 x20)) (x13 (= x54 x75)) (x101 (= x134 x111)) (x8 (= x11 x104))) (and (and (and (and (and (and (and (or (or (or x125 (or x15 x70)) x33) x65) (or (or (or x106 (or x8 x70)) x61) x150)) (and (and (or (or x57 (or (or x78 x100) x4)) x26) (or (or x127 (or (or x100 x10) x12)) x27)) (and (and (or x155 (or x22 (or (or x139 x6) x62))) (or (or (or (or x139 x130) x19) x107) x135)) (and (or (or x34 (or x50 (or x45 x63))) x60) (or (or x59 (or (or x156 x63) x132)) x5))))) (and (or (or (or x17 (or x38 x114)) x13) x145) (or (or x94 (or (or x14 x38) x96)) x84))) (and (and (or (or x112 (or x154 (or x64 x14))) x25) (or (or (or (or x114 x64) x115) x51) x36)) (and (and (and (or (or x53 (or (or x83 x78) x123)) x116) (or (or (or (or x83 x10) x152) x126) x80)) (and (and (or (or (or x7 (or x156 x66)) x3) x42) (or (or (or x41 (or x45 x66)) x69) x72)) (and (or x48 (or x101 (or x28 (or x108 x130)))) (or x141 (or (or x97 (or x108 x6)) x113))))) (and (or x91 (or x30 (or (or x15 x56) x81))) (or x147 (or (or (or x56 x8) x77) x119)))))) (and (and (or (or (or x118 (or x154 x17)) x103) x90) (or (or x157 (or (or x115 x96) x118)) x1)) (and (and (and (and (or (or x117 (or (or x62 x28) x95)) x140) (or (or (or x95 (or x19 x97)) x37) x21)) (and (or x35 (or (or (or x132 x41) x46) x24)) (or (or (or (or x7 x50) x46) x129) x29))) (and (or x87 (or (or (or x123 x12) x74) x105)) (or (or x149 (or (or x4 x152) x74)) x88))) (and (or (or (or (or x106 x81) x144) x143) x138) (or (or (or x144 (or x125 x77)) x31) x148))))) (and (and (or (or (or x103 (or x51 x94)) x73) x76) (or x55 (or x73 (or (or x13 x112) x157)))) (and (and (and (or x122 (or x32 (or x149 (or x53 x127)))) (or (or (or x105 (or x57 x126)) x32) x131)) (and (and (or x67 (or x47 (or (or x107 x113) x117))) (or (or x47 (or x37 (or x101 x22))) x40)) (and (or x86 (or x39 (or x24 (or x34 x3)))) (or x68 (or (or x129 (or x59 x69)) x39))))) (and (or (or (or x143 (or x119 x33)) x92) x121) (or x52 (or x92 (or x31 (or x61 x30)))))))) (and (and (or x128 (or (or (or x25 x145) x1) x76)) (or x128 (or x55 (or (or x84 x36) x90)))) (and (and (or (or (or (or x65 x147) x138) x52) x142) (or x142 (or x121 (or (or x150 x91) x148)))) (and (and (or x98 (or (or (or x80 x26) x87) x122)) (or (or (or (or x116 x27) x88) x131) x98)) (and (and (or x79 (or (or (or x5 x72) x29) x86)) (or x79 (or (or x35 (or x42 x60)) x68))) (and (or (or (or (or x48 x155) x21) x67) x158) (or (or x40 (or x140 (or x135 x141))) x158))))))))))
(assert (not (and (and (= x111 (x71 x136 x2)) (and (= (x71 x111 x2) x75) (= (x71 x2 x2) x136))) (= (x71 x111 x75) x104))))
(assert (not (and (and (and (= (x71 x75 x111) x104) (= x2 (x71 x111 x111))) (= x75 (x71 x2 x111))) (= (x71 x75 x104) x136))))
(assert (not (and (= (x71 x111 x2) x104) (and (and (= (x71 x111 x136) x2) (= (x71 x136 x136) x75)) (= x111 (x71 x75 x136))))))
(assert (not (and (and (= x104 (x71 x111 x136)) (and (= x2 (x71 x104 x136)) (= (x71 x136 x136) x111))) (= (x71 x104 x2) x75))))
(assert (not (and (and (= x75 (x71 x136 x2)) (and (= (x71 x2 x2) x136) (= (x71 x75 x2) x104))) (= x111 (x71 x75 x104)))))
(assert (not (and (and (and (= (x71 x2 x111) x75) (= x136 (x71 x111 x111))) (= x2 (x71 x136 x111))) (= (x71 x2 x75) x104))))
(assert (not (and (= (x71 x111 x2) x75) (and (and (= (x71 x136 x136) x104) (= x2 (x71 x111 x136))) (= x111 (x71 x104 x136))))))
(assert (not (and (= x75 (x71 x2 x136)) (and (and (= (x71 x104 x104) x111) (= (x71 x2 x104) x136)) (= (x71 x111 x104) x2)))))
(assert (or (or (or (and (and (and (not (= x136 (x71 x136 (x71 x136 x136)))) (and (not (= x136 (x71 x2 (x71 x136 x2)))) (not (= x136 (x71 x111 (x71 x136 x111)))))) (not (= (x71 x104 (x71 x136 x104)) x136))) (not (= x136 (x71 x75 (x71 x136 x75))))) (or (and (not (= (x71 x75 (x71 x111 x75)) x111)) (and (and (and (not (= x111 (x71 x111 (x71 x111 x111)))) (not (= x111 (x71 x2 (x71 x111 x2))))) (not (= (x71 x136 (x71 x111 x136)) x111))) (not (= x111 (x71 x104 (x71 x111 x104)))))) (and (not (= (x71 x75 (x71 x2 x75)) x2)) (and (and (and (not (= (x71 x111 (x71 x2 x111)) x2)) (not (= x2 (x71 x2 (x71 x2 x2))))) (not (= x2 (x71 x136 (x71 x2 x136))))) (not (= x2 (x71 x104 (x71 x2 x104)))))))) (and (and (not (= x104 (x71 x104 (x71 x104 x104)))) (and (and (not (= (x71 x111 (x71 x104 x111)) x104)) (not (= x104 (x71 x2 (x71 x104 x2))))) (not (= x104 (x71 x136 (x71 x104 x136)))))) (not (= x104 (x71 x75 (x71 x104 x75)))))) (and (and (and (not (= (x71 x136 (x71 x75 x136)) x75)) (and (not (= (x71 x111 (x71 x75 x111)) x75)) (not (= (x71 x2 (x71 x75 x2)) x75)))) (not (= (x71 x104 (x71 x75 x104)) x75))) (not (= (x71 x75 (x71 x75 x75)) x75)))))
(assert (not (and (and (and (= x111 (x71 x2 x75)) (= x136 (x71 x75 x75))) (= x2 (x71 x136 x75))) (= x104 (x71 x2 x111)))))
(assert (not (and (and (and (= (x71 x136 x136) x2) (= (x71 x75 x136) x111)) (= (x71 x2 x136) x75)) (= (x71 x75 x111) x104))))
(assert (not (and (= x111 (x71 x136 x75)) (and (= (x71 x2 x104) x136) (and (= (x71 x104 x104) x2) (= (x71 x136 x104) x75))))))
(assert (let ((x137 (x71 x104 x104)) (x54 (x71 x75 x75)) (x11 (x71 x136 x136)) (x16 (x71 x111 x111)) (x63 (x71 x2 x2))) (or (and (not (= x75 x54)) (and (not (= x137 x75)) (and (and (not (= x63 x75)) (not (= x75 x16))) (not (= x75 x11))))) (or (or (and (not (= x136 x54)) (and (and (and (not (= x136 x63)) (not (= x16 x136))) (not (= x136 x11))) (not (= x136 x137)))) (or (and (not (= x54 x111)) (and (and (not (= x11 x111)) (and (not (= x16 x111)) (not (= x111 x63)))) (not (= x137 x111)))) (and (and (and (not (= x2 x11)) (and (not (= x2 x63)) (not (= x16 x2)))) (not (= x137 x2))) (not (= x2 x54))))) (and (not (= x104 x54)) (and (not (= x137 x104)) (and (not (= x104 x11)) (and (not (= x63 x104)) (not (= x104 x16))))))))))
(assert (not (and (= (x71 x104 x111) x136) (and (and (= (x71 x104 x75) x111) (= (x71 x75 x75) x2)) (= (x71 x2 x75) x104)))))
(assert (not (and (and (= x2 (x71 x136 x111)) (and (= (x71 x2 x111) x104) (= x136 (x71 x111 x111)))) (= (x71 x2 x104) x75))))
(assert (not (and (and (and (= (x71 x136 x136) x75) (= (x71 x2 x136) x111)) (= x2 (x71 x75 x136))) (= x104 (x71 x2 x111)))))
(assert (not (and (and (= x75 (x71 x104 x2)) (and (= x111 (x71 x75 x2)) (= x104 (x71 x2 x2)))) (= x136 (x71 x75 x111)))))
(assert (not (and (= (x71 x136 x75) x104) (and (and (= x111 (x71 x2 x2)) (= (x71 x136 x2) x75)) (= (x71 x111 x2) x136)))))
(assert (not (and (= x136 (x71 x111 x104)) (and (and (= (x71 x75 x75) x2) (= x104 (x71 x111 x75))) (= x111 (x71 x2 x75))))))
(assert (not (and (and (and (= x111 (x71 x104 x136)) (= x2 (x71 x136 x136))) (= (x71 x2 x136) x104)) (= (x71 x104 x111) x75))))
(assert (not (and (and (and (= (x71 x2 x2) x75) (= (x71 x111 x2) x136)) (= (x71 x75 x2) x111)) (= (x71 x111 x136) x104))))
(assert (not (and (and (= x104 (x71 x136 x2)) (and (= x136 (x71 x2 x2)) (= (x71 x104 x2) x111))) (= x75 (x71 x104 x111)))))
(assert (not (and (and (and (= x111 (x71 x75 x136)) (= (x71 x136 x136) x104)) (= x75 (x71 x104 x136))) (= (x71 x75 x111) x2))))
(assert (not (and (= (x71 x104 x75) x111) (and (= (x71 x136 x2) x104) (and (= (x71 x104 x2) x75) (= (x71 x2 x2) x136))))))
(assert (not (and (and (= (x71 x111 x2) x75) (and (= x136 (x71 x75 x2)) (= (x71 x2 x2) x111))) (= x104 (x71 x75 x136)))))
(assert (not (and (and (and (= (x71 x104 x104) x136) (= x2 (x71 x75 x104))) (= (x71 x136 x104) x75)) (= x111 (x71 x75 x2)))))
(assert (not (and (and (and (= x136 (x71 x111 x111)) (= x2 (x71 x104 x111))) (= x104 (x71 x136 x111))) (= (x71 x104 x2) x75))))
(assert (not (and (= x111 (x71 x136 x104)) (and (and (= (x71 x2 x2) x75) (= x104 (x71 x136 x2))) (= x136 (x71 x75 x2))))))
(assert (not (and (= (x71 x136 x104) x2) (and (= x136 (x71 x75 x111)) (and (= x104 (x71 x136 x111)) (= (x71 x111 x111) x75))))))
(assert (not (and (and (and (= x75 (x71 x2 x136)) (= (x71 x136 x136) x111)) (= x2 (x71 x111 x136))) (= (x71 x2 x75) x104))))
(assert (not (and (= (x71 x104 x75) x136) (and (= (x71 x111 x2) x104) (and (= x75 (x71 x104 x2)) (= (x71 x2 x2) x111))))))
(assert (not (and (and (= x111 (x71 x75 x136)) (and (= (x71 x136 x136) x75) (= x104 (x71 x111 x136)))) (= (x71 x111 x104) x2))))
(assert (not (and (and (= x111 (x71 x2 x136)) (and (= x104 (x71 x111 x136)) (= x2 (x71 x136 x136)))) (= x75 (x71 x111 x104)))))
(assert (let ((x38 (x71 x104 x136)) (x130 (x71 x2 x75)) (x45 (x71 x136 x104)) (x20 (x71 x104 x2)) (x70 (x71 x111 x104)) (x85 (x71 x75 x111)) (x66 (x71 x75 x2)) (x102 (x71 x111 x136)) (x100 (x71 x104 x111)) (x109 (x71 x2 x136)) (x43 (x71 x136 x75)) (x120 (= x75 (x71 x75 x75))) (x156 (= x104 (x71 x104 x104))) (x16 (x71 x111 x2)) (x54 (x71 x136 x2)) (x134 (x71 x75 x136)) (x44 (x71 x111 x75)) (x6 (x71 x75 x104)) (x63 (= (x71 x2 x2) x2)) (x153 (x71 x2 x104)) (x139 (x71 x136 x111)) (x108 (x71 x104 x75)) (x18 (= x136 (x71 x136 x136))) (x11 (x71 x2 x111)) (x137 (= (x71 x111 x111) x111))) (or (or (or (or (and x156 x156) (or (or (and (= x153 x104) (= x104 x20)) (and (= x100 x104) (= x70 x104))) (and (= x104 x45) (= x38 x104)))) (and (= x104 x108) (= x104 x6))) (or (or (and (= x136 x134) (= x136 x43)) (or (and (= x45 x136) (= x136 x38)) (or (or (and (= x102 x136) (= x136 x139)) (and (= x109 x136) (= x54 x136))) (and x18 x18)))) (or (or (and (= x130 x2) (= x66 x2)) (or (and (= x2 x153) (= x2 x20)) (or (or (and x63 x63) (and (= x16 x2) (= x11 x2))) (and (= x109 x2) (= x54 x2))))) (or (and (= x111 x85) (= x44 x111)) (or (or (or (and (= x16 x111) (= x111 x11)) (and x137 x137)) (and (= x102 x111) (= x111 x139))) (and (= x100 x111) (= x111 x70))))))) (or (or (or (or (and (= x44 x75) (= x85 x75)) (and (= x130 x75) (= x75 x66))) (and (= x134 x75) (= x75 x43))) (and (= x6 x75) (= x75 x108))) (and x120 x120)))))
(assert (not (and (= x111 (x71 x75 x104)) (and (and (= x104 (x71 x75 x136)) (= (x71 x136 x136) x2)) (= x75 (x71 x2 x136))))))
(assert (not (and (and (and (= x111 (x71 x136 x136)) (= x2 (x71 x75 x136))) (= x75 (x71 x111 x136))) (= x104 (x71 x75 x2)))))
(assert (not (and (= x136 (x71 x2 x104)) (and (and (= x104 (x71 x2 x75)) (= (x71 x75 x75) x111)) (= (x71 x111 x75) x2)))))
(assert (not (and (= (x71 x2 x75) x136) (and (and (= x75 (x71 x2 x104)) (= x111 (x71 x104 x104))) (= x2 (x71 x111 x104))))))
(assert (and (and (and (not (= x136 (x71 x136 x136))) (and (not (= (x71 x2 x2) x2)) (not (= x111 (x71 x111 x111))))) (not (= (x71 x104 x104) x104))) (not (= x75 (x71 x75 x75)))))
(assert (not (and (= x2 (x71 x136 x111)) (and (and (= x75 (x71 x104 x104)) (= x111 (x71 x136 x104))) (= (x71 x75 x104) x136)))))
(assert (not (and (= (x71 x111 x136) x2) (and (= x111 (x71 x75 x104)) (and (= (x71 x111 x104) x136) (= x75 (x71 x104 x104)))))))
(assert (not (and (= (x71 x2 x136) x104) (and (and (= (x71 x111 x111) x75) (= x136 (x71 x2 x111))) (= x2 (x71 x75 x111))))))
(assert (not (and (= (x71 x75 x111) x2) (and (and (= (x71 x104 x104) x136) (= (x71 x75 x104) x111)) (= x75 (x71 x136 x104))))))
(assert (not (and (and (= x136 (x71 x104 x75)) (and (= (x71 x75 x75) x104) (= x111 (x71 x136 x75)))) (= x2 (x71 x136 x111)))))
(assert (not (and (= x75 (x71 x111 x2)) (and (= x111 (x71 x136 x104)) (and (= x2 (x71 x111 x104)) (= x136 (x71 x104 x104)))))))
(assert (and (not (= x104 x75)) (and (and (and (not (= x111 x75)) (and (not (= x104 x111)) (and (and (and (not (= x2 x104)) (and (not (= x2 x111)) (not (= x2 x136)))) (not (= x75 x2))) (not (= x111 x136))))) (not (= x104 x136))) (not (= x75 x136)))))
(check-sat)
(exit)
